5

0   0   20   10   12
0   0   14   3   2
20   14   0   11   18
10   3   11   0   17
12   2   18   17   0

0   14   74   49   23
14   0   60   37   9
74   60   0   25   51
49   37   25   0   36
23   9   51   36   0